n_machines = 5;
n_resources = 10;
n_jobs = 23;
horizon = 104;
LB = 20;
n_jobs_per_resource = [1, 4, 3, 3, 2, 2, 2, 2, 2, 2];
duration = [3, 1, 4, 5, 8, 6, 1, 3, 2, 8, 7, 3, 7, 6, 7, 7, 6, 4, 2, 3, 3, 2, 6]